# Objective value = 2.4689399999999991e+03
I_0_0 674
I_0_1 826
I_0_2 7.3999999999999989e+02
I_0_3 1.0440000000000002e+03
I_1_0 87
I_1_1 0
I_1_2 8.7000000000000014e+01
I_1_3 0
I_2_0 86
I_2_1 86
I_2_2 8.6000000000000071e+01
I_2_3 -5.5955240441107890e-14
I_3_0 65
I_3_1 -7.2164496600635175e-15
I_3_2 65
I_3_3 0
I_4_0 106
I_4_1 106
I_4_2 53
I_4_3 0
I_5_0 26
I_5_1 2.5999999999999993e+01
I_5_2 1.3000000000000007e+01
I_5_3 0
q_1_0_0 0
q_1_0_1 174
q_1_0_2 0
q_1_1_0 0
q_1_1_1 0
q_1_1_2 0
q_2_0_0 86
q_2_0_1 1.3322676295501878e-13
q_2_0_2 0
q_2_1_0 0
q_2_1_1 86
q_2_1_2 -1.1191048088221578e-13
q_3_0_0 0
q_3_0_1 0
q_3_0_2 0
q_3_1_0 -7.2164496600635175e-15
q_3_1_1 130
q_3_1_2 0
q_4_0_0 53
q_4_0_1 0
q_4_0_2 0
q_4_1_0 0
q_4_1_1 0
q_4_1_2 0
q_5_0_0 1.2999999999999991e+01
q_5_0_1 1.4210854715202004e-14
q_5_0_2 0
q_5_1_0 0
q_5_1_1 0
q_5_1_2 -7.1054273576010019e-15
y_0_0_0 1
y_0_0_1 1
y_0_0_2 0
y_0_1_0 -1.1102230246251565e-16
y_0_1_1 1.0000000000000002e+00
y_0_1_2 -4.85722573273506e-16
y_1_0_0 0
y_1_0_1 1
y_1_0_2 0
y_1_1_0 0
y_1_1_1 0
y_1_1_2 0
y_2_0_0 1
y_2_0_1 2.9143354396410359e-15
y_2_0_2 0
y_2_1_0 0
y_2_1_1 1
y_2_1_2 -8.0491169285323849e-16
y_3_0_0 0
y_3_0_1 0
y_3_0_2 0
y_3_1_0 -1.1102230246251565e-16
y_3_1_1 1
y_3_1_2 0
y_4_0_0 1
y_4_0_1 0
y_4_0_2 0
y_4_1_0 0
y_4_1_1 0
y_4_1_2 0
y_5_0_0 9.9999999999999933e-01
y_5_0_1 0
y_5_0_2 0
y_5_1_0 0
y_5_1_1 0
y_5_1_2 0
x_0_1_0_0 0
x_0_1_0_1 1.9999999999999971e+00
x_0_1_0_2 0
x_0_1_1_0 0
x_0_1_1_1 0
x_0_1_1_2 0
x_0_2_0_0 1
x_0_2_0_1 2.7616797737550769e-15
x_0_2_0_2 0
x_0_2_1_0 0
x_0_2_1_1 1
x_0_2_1_2 -1.8596235662471372e-15
x_0_3_0_0 0
x_0_3_0_1 0
x_0_3_0_2 0
x_0_3_1_0 -2.2204460492503131e-16
x_0_3_1_1 1
x_0_3_1_2 1.1102230246251565e-14
x_0_4_0_0 0
x_0_4_0_1 0
x_0_4_0_2 0
x_0_4_1_0 0
x_0_4_1_1 0
x_0_4_1_2 0
x_0_5_0_0 1.0000000000000007e+00
x_0_5_0_1 0
x_0_5_0_2 0
x_0_5_1_0 0
x_0_5_1_1 0
x_0_5_1_2 0
x_1_2_0_0 0
x_1_2_0_1 3.1780134079895106e-15
x_1_2_0_2 0
x_1_2_1_0 0
x_1_2_1_1 0
x_1_2_1_2 0
x_1_3_0_0 0
x_1_3_0_1 0
x_1_3_0_2 0
x_1_3_1_0 0
x_1_3_1_1 0
x_1_3_1_2 0
x_1_4_0_0 0
x_1_4_0_1 0
x_1_4_0_2 0
x_1_4_1_0 0
x_1_4_1_1 0
x_1_4_1_2 0
x_1_5_0_0 0
x_1_5_0_1 0
x_1_5_0_2 0
x_1_5_1_0 0
x_1_5_1_1 0
x_1_5_1_2 0
x_2_3_0_0 0
x_2_3_0_1 0
x_2_3_0_2 0
x_2_3_1_0 0
x_2_3_1_1 1
x_2_3_1_2 -1.1102230246251565e-14
x_2_4_0_0 1
x_2_4_0_1 0
x_2_4_0_2 0
x_2_4_1_0 0
x_2_4_1_1 0
x_2_4_1_2 0
x_2_5_0_0 0
x_2_5_0_1 0
x_2_5_0_2 0
x_2_5_1_0 0
x_2_5_1_1 0
x_2_5_1_2 0
x_3_4_0_0 0
x_3_4_0_1 0
x_3_4_0_2 0
x_3_4_1_0 0
x_3_4_1_1 0
x_3_4_1_2 0
x_3_5_0_0 -4.4408920985006262e-16
x_3_5_0_1 0
x_3_5_0_2 0
x_3_5_1_0 0
x_3_5_1_1 0
x_3_5_1_2 0
x_4_5_0_0 1.0000000000000002e+00
x_4_5_0_1 0
x_4_5_0_2 0
x_4_5_1_0 0
x_4_5_1_1 0
x_4_5_1_2 0
